P40 W20                                 
   1.00000000000000     
    11.2308876796819739    0.0000000000000000    0.0000000000000007
     0.0000000000000008    5.0102889757187334    0.0000000000000003
     0.0000000000000000    0.0000000000000000   25.5229202677314930
   P    W 
    40    20
Direct
  0.5741859922848358  0.6105577384765146  0.0951383449841356
  0.9327897450297770  0.1299116989383810  0.0265864467300367
  0.7891156643435560  0.8237135313822573  0.0358871709381709
  0.7035512693012406  0.2885721906286857  0.0926793662215621
  0.0672102549702229  0.6299116989383811  0.0265864467300367
  0.4258140077151643  0.1105577384765146  0.0951383449841356
  0.2964487306987595  0.7885721906286854  0.0926793662215621
  0.2108843356564441  0.3237135313822573  0.0358871709381709
  0.5704336403750836  0.6181158614408202  0.2197413683592008
  0.9292806176122097  0.1182986720752002  0.1543448979487930
  0.7974288731358499  0.7999539531085444  0.1558215533459365
  0.7018746156415451  0.2999184569430756  0.2188793248627898
  0.0707193823877902  0.6182986720752001  0.1543448979487930
  0.4295663596249163  0.1181158614408200  0.2197413683592008
  0.2981253843584552  0.7999184569430755  0.2188793248627898
  0.2025711268641503  0.2999539531085444  0.1558215533459365
  0.5699436309977014  0.6180077682650560  0.3448217058226314
  0.9300563690022986  0.1180077682650561  0.2801782941773686
  0.7983960170677828  0.8003168481704721  0.2806895765678967
  0.7016039829322172  0.3003168481704721  0.3443104234321033
  0.0699436309977015  0.6180077682650560  0.2801782941773686
  0.4300563690022985  0.1180077682650561  0.3448217058226314
  0.2983960170677830  0.8003168481704721  0.3443104234321033
  0.2016039829322170  0.3003168481704721  0.2806895765678967
  0.5707193823877903  0.6182986720752001  0.4706551020512070
  0.9295663596249164  0.1181158614408200  0.4052586316407991
  0.7981253843584549  0.7999184569430755  0.4061206751372102
  0.7025711268641501  0.2999539531085444  0.4691784466540636
  0.0704336403750837  0.6181158614408202  0.4052586316407991
  0.4292806176122099  0.1182986720752002  0.4706551020512070
  0.2974288731358499  0.7999539531085444  0.4691784466540636
  0.2018746156415447  0.2999184569430756  0.4061206751372102
  0.5672102549702230  0.6299116989383811  0.5984135532699634
  0.9258140077151642  0.1105577384765146  0.5298616550158644
  0.7964487306987594  0.7885721906286854  0.5323206337784380
  0.7108843356564440  0.3237135313822573  0.5891128290618294
  0.0741859922848357  0.6105577384765146  0.5298616550158644
  0.4327897450297770  0.1299116989383810  0.5984135532699634
  0.2891156643435560  0.8237135313822573  0.5891128290618294
  0.2035512693012405  0.2885721906286857  0.5323206337784380
  0.9081016947887267  0.4990118741038934  0.0924627019826953
  0.5921446663451215 -0.0189014502505994  0.0385981276897341
  0.4078553336548785  0.4810985497494007  0.0385981276897341
  0.0918983052112733 -0.0009881258961067  0.0924627019826953
  0.9071908210887542  0.4993886013271166  0.2178893242402902
  0.5922544829503760 -0.0022767075410705  0.1577740796537498
  0.4077455170496239  0.4977232924589295  0.1577740796537498
  0.0928091789112463 -0.0006113986728835  0.2178893242402902
  0.9067046950665550  0.5004109629316258  0.3428850141399939
  0.5932953049334450  0.0004109629316256  0.2821149858600061
  0.4067046950665551  0.5004109629316258  0.2821149858600061
  0.0932953049334449  0.0004109629316256  0.3428850141399939
  0.9077455170496240  0.4977232924589295  0.4672259203462501
  0.5928091789112458 -0.0006113986728835  0.4071106757597098
  0.4071908210887537  0.4993886013271166  0.4071106757597098
  0.0922544829503761 -0.0022767075410705  0.4672259203462501
  0.9078553336548785  0.4810985497494007  0.5864018723102659
  0.5918983052112733 -0.0009881258961067  0.5325372980173049
  0.4081016947887267  0.4990118741038934  0.5325372980173049
  0.0921446663451216 -0.0189014502505994  0.5864018723102659
 
  0.00000000E+00  0.00000000E+00  0.00000000E+00
  0.00000000E+00  0.00000000E+00  0.00000000E+00
  0.00000000E+00  0.00000000E+00  0.00000000E+00
  0.00000000E+00  0.00000000E+00  0.00000000E+00
  0.00000000E+00  0.00000000E+00  0.00000000E+00
  0.00000000E+00  0.00000000E+00  0.00000000E+00
  0.00000000E+00  0.00000000E+00  0.00000000E+00
  0.00000000E+00  0.00000000E+00  0.00000000E+00
  0.00000000E+00  0.00000000E+00  0.00000000E+00
  0.00000000E+00  0.00000000E+00  0.00000000E+00
  0.00000000E+00  0.00000000E+00  0.00000000E+00
  0.00000000E+00  0.00000000E+00  0.00000000E+00
  0.00000000E+00  0.00000000E+00  0.00000000E+00
  0.00000000E+00  0.00000000E+00  0.00000000E+00
  0.00000000E+00  0.00000000E+00  0.00000000E+00
  0.00000000E+00  0.00000000E+00  0.00000000E+00
  0.00000000E+00  0.00000000E+00  0.00000000E+00
  0.00000000E+00  0.00000000E+00  0.00000000E+00
  0.00000000E+00  0.00000000E+00  0.00000000E+00
  0.00000000E+00  0.00000000E+00  0.00000000E+00
  0.00000000E+00  0.00000000E+00  0.00000000E+00
  0.00000000E+00  0.00000000E+00  0.00000000E+00
  0.00000000E+00  0.00000000E+00  0.00000000E+00
  0.00000000E+00  0.00000000E+00  0.00000000E+00
  0.00000000E+00  0.00000000E+00  0.00000000E+00
  0.00000000E+00  0.00000000E+00  0.00000000E+00
  0.00000000E+00  0.00000000E+00  0.00000000E+00
  0.00000000E+00  0.00000000E+00  0.00000000E+00
  0.00000000E+00  0.00000000E+00  0.00000000E+00
  0.00000000E+00  0.00000000E+00  0.00000000E+00
  0.00000000E+00  0.00000000E+00  0.00000000E+00
  0.00000000E+00  0.00000000E+00  0.00000000E+00
  0.00000000E+00  0.00000000E+00  0.00000000E+00
  0.00000000E+00  0.00000000E+00  0.00000000E+00
  0.00000000E+00  0.00000000E+00  0.00000000E+00
  0.00000000E+00  0.00000000E+00  0.00000000E+00
  0.00000000E+00  0.00000000E+00  0.00000000E+00
  0.00000000E+00  0.00000000E+00  0.00000000E+00
  0.00000000E+00  0.00000000E+00  0.00000000E+00
  0.00000000E+00  0.00000000E+00  0.00000000E+00
  0.00000000E+00  0.00000000E+00  0.00000000E+00
  0.00000000E+00  0.00000000E+00  0.00000000E+00
  0.00000000E+00  0.00000000E+00  0.00000000E+00
  0.00000000E+00  0.00000000E+00  0.00000000E+00
  0.00000000E+00  0.00000000E+00  0.00000000E+00
  0.00000000E+00  0.00000000E+00  0.00000000E+00
  0.00000000E+00  0.00000000E+00  0.00000000E+00
  0.00000000E+00  0.00000000E+00  0.00000000E+00
  0.00000000E+00  0.00000000E+00  0.00000000E+00
  0.00000000E+00  0.00000000E+00  0.00000000E+00
  0.00000000E+00  0.00000000E+00  0.00000000E+00
  0.00000000E+00  0.00000000E+00  0.00000000E+00
  0.00000000E+00  0.00000000E+00  0.00000000E+00
  0.00000000E+00  0.00000000E+00  0.00000000E+00
  0.00000000E+00  0.00000000E+00  0.00000000E+00
  0.00000000E+00  0.00000000E+00  0.00000000E+00
  0.00000000E+00  0.00000000E+00  0.00000000E+00
  0.00000000E+00  0.00000000E+00  0.00000000E+00
  0.00000000E+00  0.00000000E+00  0.00000000E+00
  0.00000000E+00  0.00000000E+00  0.00000000E+00
